NAME : portcgen-28-11
COMMENT : portcgen N=28, seed=11
TYPE : TSP
DIMENSION : 28
EDGE_WEIGHT_TYPE : EUC_2D
NODE_COORD_SECTION
1 -332426 -1693
2 79142 -236210
3 -296048 62227
4 -161424 12670
5 154351 -140437
6 83334 -514658
7 158386 -99799
8 190285 309517
9 69066 -115023
10 -115989 -190117
11 29898 25973
12 73798 256327
13 -352491 -193449
14 333651 215686
15 33979 -17282
16 -166357 177229
17 261790 -149831
18 231202 37297
19 -130619 -147648
20 30642 334077
21 8928 -45303
22 -43478 105558
23 178890 25139
24 -70266 93127
25 -32153 -9584
26 28195 17507
27 252868 -355045
28 -55897 407341
